DIMENSION: 7
EDGE_WEIGHT_TYPE: EXPLICIT
EDGE_WEIGHT_FORMAT: FULL_MATRIX
EDGE_WEIGHT_SECTION:
32767 32767 21 41 39 92 99 
32767 32767 6 32767 72 28 32767 
21 6 32767 23 51 55 32767 
41 32767 23 32767 1 34 18 
39 72 51 1 32767 97 32767 
92 28 55 34 97 32767 32767 
99 32767 32767 18 32767 32767 32767 
EOF